98 81 38 
9 43 14 21 28 54 
22 30 100 68 49 84 95 73 37 94 78 72 
91 90 46 33 82 58 51 44 79 52 19 71 
67 96 63 27 31 11 
93 60 85 61 92 18 35 32 76 48 17 87 
88 5 41 7 
74 6 66 69 65 53 29 40 45 89 25 80 10 1 8 20 
62 39 36 4 57 23 97 12 59 15 34 13 26 75 3 
47 24 50 83 99 64 55 56 70 42 2 86 77 16 

